33 33
23
3 3 14 30
3 4 11 22
3 5 11 0
3 6 27 13
3 7 11 26
3 8 17 10
3 9 30 24
3 10 17 0
3 13 27 0
3 14 27 19
3 15 17 18
3 17 11 5
3 24 30 0
3 30 14 0
3 33 20 0
4 3 0 20
4 4 23 29
4 6 0 0
4 10 0 23
4 12 23 0
4 14 0 6
4 17 23 12
7 33 4 0
